\ Model FLP
\ LP format - for model browsing. Use MPS format to capture full model detail.
Minimize
  0 p_X[0,0] + 6 p_X[0,1] + 0 p_X[1,0] + 0 p_X[1,1] + 0 q_X[0,0]
   + 6 q_X[0,1] + 0 q_X[1,0] + 0 q_X[1,1] + 5 r_X[0,0] + 3 r_X[0,1]
   + r_X[1,1] + 8 r_X[1,2] + 4 r_X[1,3] + 5 s_X[0,0] + 3 s_X[0,1]
   + s_X[1,1] + 8 s_X[1,2] + 4 s_X[1,3] + 0 p_Y[0,0] + 6 p_Y[0,1]
   + 0 p_Y[1,0] + 0 p_Y[1,1] + 0 q_Y[0,0] + 6 q_Y[0,1] + 0 q_Y[1,0]
   + 0 q_Y[1,1] + 5 r_Y[0,0] + 3 r_Y[0,1] + r_Y[1,1] + 8 r_Y[1,2]
   + 4 r_Y[1,3] + 5 s_Y[0,0] + 3 s_Y[0,1] + s_Y[1,1] + 8 s_Y[1,2]
   + 4 s_Y[1,3]
Subject To
 R0: x[0] - x[1] + p_X[0,1] - q_X[0,1] = 0
 R1: x[0] - r_X[0,0] + s_X[0,0] = 0
 R2: x[0] - r_X[0,1] + s_X[0,1] = 4
 R3: x[0] - r_X[0,2] + s_X[0,2] = 6
 R4: x[0] - r_X[0,3] + s_X[0,3] = 10
 R5: x[1] - r_X[1,0] + s_X[1,0] = 0
 R6: x[1] - r_X[1,1] + s_X[1,1] = 4
 R7: x[1] - r_X[1,2] + s_X[1,2] = 6
 R8: x[1] - r_X[1,3] + s_X[1,3] = 10
 R9: y[0] - y[1] + p_Y[0,1] - q_Y[0,1] = 0
 R10: y[0] - r_Y[0,0] + s_Y[0,0] = 2
 R11: y[0] - r_Y[0,1] + s_Y[0,1] = 0
 R12: y[0] - r_Y[0,2] + s_Y[0,2] = 8
 R13: y[0] - r_Y[0,3] + s_Y[0,3] = 4
 R14: y[1] - r_Y[1,0] + s_Y[1,0] = 2
 R15: y[1] - r_Y[1,1] + s_Y[1,1] = 0
 R16: y[1] - r_Y[1,2] + s_Y[1,2] = 8
 R17: y[1] - r_Y[1,3] + s_Y[1,3] = 4
Bounds
End
